%chk=ch2s_bp86def2sv_opt.chk
# opt=calcfc bvp86/def2sv geom=connectivity

Title Card Required

0 1
 C                 -0.00000078    1.03171268   -0.00000000
 H                  0.93883713    1.63101444    0.00000000
 H                 -0.93881998    1.63104379    0.00000000
 S                 -0.00000078   -0.59077089    0.00000000

 1 2 1.0 3 1.0 4 2.0
 2
 3
 4

