%chk=co2_linear.chk
# hf/3-21g geom=connectivity

Title Card Required

0 1
 C                 -0.31187123    0.53319919    0.00000000
 O                 -1.57027123    0.53319919    0.00000000
 O                  0.94652877    0.53319919    0.00000000

 1 2 2.0 3 2.0
 2
 3

