%chk=co2_linear.chk
# hf/3-21g geom=connectivity

Title Card Required

0 1
 C                 -0.49295775   -0.57344064    0.00000000
 O                  0.76544225   -0.57344064    0.00000000
 O                 -1.75135775   -0.57344064    0.00000000

 1 2 2.0 3 2.0
 2
 3

