%chk=t_odd.chk
# irc=(calcfc,maxpoints=10) pm6 geom=connectivity

Title Card Required

0 1
 C                 -1.20336617    0.39982617    0.00000000
 H                 -2.18660815    0.87975583    0.00000000
 C                  0.00000000    1.11747993    0.00000000
 H                  0.00000234    2.20002845    0.00000000
 C                  1.20347963    0.39973057    0.00000000
 O                 -1.21543191   -0.88359276    0.00000000
 O                  1.21536830   -0.88348408    0.00000000
 H                  2.18668083    0.87972869    0.00000000
 H                 -0.00024690   -1.32511828    0.00000000

 1 2 1.0 3 2.0 6 1.0
 2
 3 4 1.0 5 1.0
 4
 5 7 1.0 8 1.0
 6
 7 9 1.0
 8
 9

