%chk=benzene_distorted.chk
# hf/3-21g geom=connectivity

Title Card Required

0 1
 C                 -0.19114688    0.69392710   -0.01817112
 C                  1.20401312    0.69392710   -0.01817112
 C                  1.90155112    1.81451498    0.43232336
 C                  1.20389712    3.11018710   -0.01937012
 C                 -0.19092788    3.11010910   -0.01984912
 C                 -0.88852888    1.81446936   -0.46938230
 H                 -0.74090588   -0.18949354    0.33746329
 H                  1.75352112   -0.19033375   -0.37224102
 H                  3.00123112    1.81435273    0.43294144
 H                  1.75409712    4.06233010   -0.01942912
 H                 -0.74104988    4.06239010   -0.02080212
 H                 -1.98813288    1.81457201   -0.46961757

 1 2 1.5 6 1.5 7 1.0
 2 3 1.5 8 1.0
 3 4 1.5 9 1.0
 4 5 1.5 10 1.0
 5 6 1.5 11 1.0
 6 12 1.0
 7
 8
 9
 10
 11
 12

