%chk=co2_linear.chk
#P hf/3-21g opt nosymm

Title Card Required

0 1
 C                 -0.31187123    0.53319919    0.00000000
 O                 -1.57027123    0.53319919    0.00000000
 O                  0.94652877    0.53319919    0.00000000
 
 
 
