%chk=ma_end.chk
# irc=(calcfc,maxpoints=10) pm6 geom=connectivity

Title Card Required

0 1
 C                 -1.18992012    0.45679384    0.00000000
 H                 -2.18746485    0.90262792    0.00000000
 C                 -0.01037754    1.14141005   -0.00000000
 H                  0.01093726    2.22575637   -0.00000000
 C                  1.24060256    0.42053985   -0.00000000
 O                 -1.27483100   -0.87152651   -0.00000000
 O                  1.26073242   -0.81765297   -0.00000000
 H                  2.18300380    0.98292750    0.00000000
 H                 -0.30982228   -1.34023912    0.00000000

 1 2 1.0 3 2.0 6 1.5
 2
 3 4 1.0 5 1.5
 4
 5 7 2.0 8 1.0
 6
 7
 8
 9

