%chk=03_buta_cis_no_opt.chk
#p td=(nstates=5) bp86 def2svp gfinput iop(6/7=3)

Title Card Required

0 1
 C                 -1.64743592   -0.05128205    0.00000000
 H                 -1.11427218   -0.97898697    0.00000000
 H                 -2.71743592   -0.05128205    0.00000000
 C                 -0.97216162    1.12369525    0.00000000
 H                 -1.50532536    2.05140017    0.00000000
 C                  0.56783838    1.12369525    0.00000000
 H                  1.10100213    2.05140017   -0.00000000
 C                  1.25008178   -0.04724923    0.00000000
 H                  0.72243931   -0.97810551    0.00000000
 H                  2.32006290   -0.04089193   -0.00000000

