%chk=methane_stretch.chk
# hf/3-21g geom=connectivity

Title Card Required

0 1
 C                  0.00000000    0.00000000   -0.00000004
 H                  0.00000000    0.00000000    1.06999996
 H                  0.00000000    1.34331447   -0.47493295
 H                  0.87365132   -0.50440311   -0.35666639
 H                 -0.87365134   -0.50440269   -0.35666690

 1 2 1.0 3 1.0 4 1.0 5 1.0
 2
 3
 4
 5

