%chk=benzene.chk
# hf/3-21g geom=connectivity

Title Card Required

0 1
 C                  1.20809735    0.69749533   -0.00000000
 C                  0.00000000    1.39499067   -0.00000000
 C                 -1.20809735    0.69749533   -0.00000000
 C                 -1.20809735   -0.69749533   -0.00000000
 C                 -0.00000000   -1.39499067   -0.00000000
 C                  1.20809735   -0.69749533   -0.00000000
 H                  2.16038781    1.24730049   -0.00000000
 H                  0.00000000    2.49460097   -0.00000000
 H                 -2.16038781    1.24730049   -0.00000000
 H                 -2.16038781   -1.24730049   -0.00000000
 H                  0.00000000   -2.49460097   -0.00000000
 H                  2.16038781   -1.24730049   -0.00000000

 1 2 1.5 6 1.5 7 1.0
 2 3 1.5 8 1.0
 3 4 1.5 9 1.0
 4 5 1.5 10 1.0
 5 6 1.5 11 1.0
 6 12 1.0
 7
 8
 9
 10
 11
 12

